FILENAME:   /home/mcs001/s132664/testsets/IP/miplib2017/graph20-80-1rand.mps.gz
SETTINGS:   settings_final_nopeek_norelabel_extend_norestarts
TIMELIMIT:  7200
OUTPUTNAME: final_miplib_symretope_if_extended_generating_set_cpx_v802__settings_final_nopeek_norelabel_extend_norestarts__2__
BINNAME:    bin/sbcs.linux.x86_64.gnu.opt.cpx
BASENAME:   graph20-80-1rand.mps.gz
SEED:       2
@01 /home/mcs001/s132664/testsets/IP/miplib2017/graph20-80-1rand.mps.gz ===========
@02 graph20-80-1rand.mps.gz
@03 1686656721
SCIP version 8.0.2 [precision: 8 byte] [memory: block] [mode: optimized] [LP solver: CPLEX 20.1.0.0] [GitHash: 5f0473c]
Copyright (C) 2002-2022 Konrad-Zuse-Zentrum fuer Informationstechnik Berlin (ZIB)

Symretope propagation methods - (c) Jasper van Doornmalen, Christopher Hojny.
[GitHash: 2fd0484]

reading parameter file <../settings/settings_final_nopeek_norelabel_extend_norestarts.set> ...

Changed settings:
limits/time = 7200
limits/restarts = 0
misc/usesymmetry = 1
randomization/randomseedshift = 2
constraints/orbisack/sepafreq = -1
constraints/symresack/sepafreq = -1
propagating/symmetry/addsymresacks = TRUE
propagating/symmetry/detectsubgroups = FALSE
propagating/symmetry/relabelsymretopes = 0
propagating/symmetry/extendgenerators = TRUE
propagating/symmetry/ofsymcomptiming = 0
constraints/symretope/sepafreq = -1
constraints/symretope/peek = FALSE


solving problem ...

original problem has 16263 variables (16263 bin, 0 int, 0 impl, 0 cont) and 55107 constraints
presolving:
(round 1, fast)       117 del vars, 117 del conss, 0 add conss, 117 chg bounds, 0 chg sides, 0 chg coeffs, 0 upgd conss, 0 impls, 117 clqs
(round 2, fast)       117 del vars, 3393 del conss, 0 add conss, 117 chg bounds, 0 chg sides, 0 chg coeffs, 0 upgd conss, 0 impls, 3393 clqs
(round 3, medium)     1755 del vars, 3393 del conss, 0 add conss, 117 chg bounds, 0 chg sides, 0 chg coeffs, 0 upgd conss, 0 impls, 117 clqs
(round 4, fast)       1755 del vars, 6669 del conss, 0 add conss, 117 chg bounds, 0 chg sides, 234 chg coeffs, 0 upgd conss, 0 impls, 117 clqs
(round 5, exhaustive) 1755 del vars, 6669 del conss, 0 add conss, 117 chg bounds, 0 chg sides, 234 chg coeffs, 48438 upgd conss, 0 impls, 117 clqs
(round 6, medium)     1872 del vars, 6669 del conss, 0 add conss, 117 chg bounds, 117 chg sides, 351 chg coeffs, 48438 upgd conss, 0 impls, 115 clqs
   (1.3s) probing: 51/14391 (0.4%) - 0 fixings, 0 aggregations, 0 implications, 0 bound changes
   (1.3s) probing aborted: 50/50 successive totally useless probings
   (1.3s) symmetry computation started: requiring (bin +, int +, cont +), (fixed: bin -, int -, cont -)
   (5.9s) symmetry computation finished: 132 generators found (max: 1500, log10 of symmetry group size: 197.4)
(round 7, exhaustive) 1872 del vars, 6671 del conss, 2103 add conss, 117 chg bounds, 117 chg sides, 1170 chg coeffs, 48438 upgd conss, 0 impls, 115 clqs
presolving (8 rounds: 8 fast, 5 medium, 3 exhaustive):
 1872 deleted vars, 6671 deleted constraints, 2103 added constraints, 117 tightened bounds, 0 added holes, 117 changed sides, 1170 changed coefficients
 0 implications, 115 cliques
presolved problem has 14391 variables (14391 bin, 0 int, 0 impl, 0 cont) and 50539 constraints
    115 constraints of type <setppc>
   1988 constraints of type <orbisack>
    115 constraints of type <symretope>
  48321 constraints of type <logicor>
transformed objective value is always integral (scale: 1)
Presolving Time: 6.52

 time | node  | left  |LP iter|LP it/n|mem/heur|mdpt |vars |cons |rows |cuts |sepa|confs|strbr|  dualbound   | primalbound  |  gap   | compl. 
t 6.7s|     1 |     0 |     0 |     - | trivial|   0 |  14k|  50k|   0 |   0 |  0 |   0 |   0 |-1.170000e+02 | 0.000000e+00 |    Inf | unknown
p 6.9s|     1 |     0 |     0 |     - |  clique|   0 |  14k|  50k|  50k|   0 |  0 |   0 |   0 |-1.170000e+02 |-1.000000e+00 |  Large | unknown
  140s|     1 |     0 | 57772 |     - |   477M |   0 |  14k|  50k|  50k|   0 |  0 |  13 |   0 |-1.080000e+02 |-1.000000e+00 |  Large | unknown
  212s|     1 |     0 | 72369 |     - |   503M |   0 |  14k|  50k|  50k|  67 |  1 |  15 |   0 |-1.080000e+02 |-1.000000e+00 |  Large | unknown
  243s|     1 |     0 | 77360 |     - |   511M |   0 |  14k|  50k|  50k|  83 |  2 |  17 |   0 |-1.080000e+02 |-1.000000e+00 |  Large | unknown
  262s|     1 |     0 | 78902 |     - |   518M |   0 |  14k|  50k|  50k|  85 |  3 |  24 |   0 |-1.080000e+02 |-1.000000e+00 |  Large | unknown
  281s|     1 |     0 | 80191 |     - |   525M |   0 |  14k|  50k|  50k|  88 |  4 |  29 |   0 |-1.080000e+02 |-1.000000e+00 |  Large | unknown
  315s|     1 |     0 | 86768 |     - |   533M |   0 |  14k|  50k|  50k| 105 |  5 |  30 |   0 |-1.080000e+02 |-1.000000e+00 |  Large | unknown
  351s|     1 |     0 | 92997 |     - |   539M |   0 |  14k|  50k|  50k| 119 |  6 |  40 |   0 |-1.080000e+02 |-1.000000e+00 |  Large | unknown
  435s|     1 |     0 |111149 |     - |   545M |   0 |  14k|  50k|  50k| 134 |  7 |  41 |   0 |-1.074212e+02 |-1.000000e+00 |  Large | unknown
 1071s|     1 |     0 |256518 |     - |   552M |   0 |  14k|  50k|  50k| 142 |  8 |  51 |   0 |-1.069706e+02 |-1.000000e+00 |  Large | unknown
 1292s|     1 |     0 |305988 |     - |   559M |   0 |  14k|  50k|  50k| 153 |  9 |  52 |   0 |-1.059788e+02 |-1.000000e+00 |  Large | unknown
 1521s|     1 |     0 |351086 |     - |   567M |   0 |  14k|  50k|  48k| 158 | 10 |  53 |   0 |-1.058368e+02 |-1.000000e+00 |  Large | unknown
 1795s|     1 |     0 |425307 |     - |   573M |   0 |  14k|  50k|  48k| 160 | 11 |  54 |   0 |-1.058133e+02 |-1.000000e+00 |  Large | unknown
 1981s|     1 |     0 |468122 |     - |   578M |   0 |  14k|  50k|  48k| 171 | 12 |  57 |   0 |-1.056892e+02 |-1.000000e+00 |  Large | unknown
 time | node  | left  |LP iter|LP it/n|mem/heur|mdpt |vars |cons |rows |cuts |sepa|confs|strbr|  dualbound   | primalbound  |  gap   | compl. 
 2273s|     1 |     0 |535738 |     - |   586M |   0 |  14k|  50k|  48k| 174 | 13 |  58 |   0 |-1.056509e+02 |-1.000000e+00 |  Large | unknown
 2537s|     1 |     0 |594907 |     - |   592M |   0 |  14k|  50k|  48k| 191 | 14 |  60 |   0 |-1.053442e+02 |-1.000000e+00 |  Large | unknown
 2615s|     1 |     0 |612421 |     - |   597M |   0 |  14k|  50k|  48k| 197 | 15 |  61 |   0 |-1.050937e+02 |-1.000000e+00 |  Large | unknown
 2772s|     1 |     0 |644339 |     - |   602M |   0 |  14k|  50k|  48k| 201 | 16 |  62 |   0 |-1.049664e+02 |-1.000000e+00 |  Large | unknown
 2874s|     1 |     0 |667192 |     - |   607M |   0 |  14k|  50k|  48k| 205 | 17 |  64 |   0 |-1.047570e+02 |-1.000000e+00 |  Large | unknown
 3034s|     1 |     0 |705210 |     - |   613M |   0 |  14k|  50k|  48k| 216 | 18 |  68 |   0 |-1.044618e+02 |-1.000000e+00 |  Large | unknown
 3099s|     1 |     0 |719957 |     - |   613M |   0 |  14k|  50k|  48k| 221 | 19 |  78 |   0 |-1.043703e+02 |-1.000000e+00 |  Large | unknown
 3153s|     1 |     0 |732386 |     - |   618M |   0 |  14k|  50k|  48k| 223 | 20 |  79 |   0 |-1.042275e+02 |-1.000000e+00 |  Large | unknown
 3266s|     1 |     0 |758789 |     - |   619M |   0 |  14k|  50k|  48k| 237 | 21 |  81 |   0 |-1.041703e+02 |-1.000000e+00 |  Large | unknown
 3293s|     1 |     0 |760933 |     - |   620M |   0 |  14k|  50k|  48k| 238 | 22 |  89 |   0 |-1.041685e+02 |-1.000000e+00 |  Large | unknown
 3324s|     1 |     0 |766465 |     - |   620M |   0 |  14k|  50k|  48k| 245 | 23 |  91 |   0 |-1.041562e+02 |-1.000000e+00 |  Large | unknown
 3599s|     1 |     2 |795635 |     - |   639M |   0 |  14k|  50k|  48k| 245 | 25 |  96 |  35 |-1.040241e+02 |-1.000000e+00 |  Large | unknown

SCIP Status        : solving was interrupted [time limit reached]
Solving Time (sec) : 7200.04
Solving Nodes      : 13
Primal Bound       : -1.00000000000000e+00 (2 solutions)
Dual Bound         : -1.03983038778315e+02
Gap                : 10298.30 %
SCIP Status        : solving was interrupted [time limit reached]
Total Time         :    7200.35
  solving          :    7200.04
  presolving       :       6.52 (included in solving)
  reading          :       0.31
  copying          :       0.27 (2 #copies) (minimal 0.13, maximal 0.13, average 0.13)
Original Problem   :
  Problem name     : graph20-80-1rand
  Variables        : 16263 (16263 binary, 0 integer, 0 implicit integer, 0 continuous)
  Constraints      : 55107 initial, 55107 maximal
  Objective        : minimize, 117 non-zeros (abs.min = 1, abs.max = 1)
Presolved Problem  :
  Problem name     : t_graph20-80-1rand
  Variables        : 14391 (14391 binary, 0 integer, 0 implicit integer, 0 continuous)
  Constraints      : 50539 initial, 50640 maximal
  Objective        : minimize, 117 non-zeros (abs.min = 1, abs.max = 1)
  Nonzeros         : 1128991 constraint, 13464 clique table
Presolvers         :   ExecTime  SetupTime  Calls  FixedVars   AggrVars   ChgTypes  ChgBounds   AddHoles    DelCons    AddCons   ChgSides   ChgCoefs
  boundshift       :       0.00       0.00      0          0          0          0          0          0          0          0          0          0
  convertinttobin  :       0.00       0.00      0          0          0          0          0          0          0          0          0          0
  domcol           :       0.06       0.00      2          0          0          0          0          0          0          0          0          0
  dualagg          :       0.00       0.00      0          0          0          0          0          0          0          0          0          0
  dualcomp         :       0.00       0.00      0          0          0          0          0          0          0          0          0          0
  dualinfer        :       0.00       0.00      0          0          0          0          0          0          0          0          0          0
  dualsparsify     :       0.08       0.00      1          0          0          0          0          0          0          0          0          0
  gateextraction   :       0.03       0.00      2          0          0          0          0          0          0          0          0          0
  implics          :       0.00       0.00      5          0          0          0          0          0          0          0          0          0
  inttobinary      :       0.00       0.00      0          0          0          0          0          0          0          0          0          0
  qpkktref         :       0.00       0.00      0          0          0          0          0          0          0          0          0          0
  redvub           :       0.00       0.00      0          0          0          0          0          0          0          0          0          0
  sparsify         :       0.08       0.00      1          0          0          0          0          0          0          0          0          0
  stuffing         :       0.00       0.00      0          0          0          0          0          0          0          0          0          0
  trivial          :       0.01       0.00      8          0          0          0          0          0          0          0          0          0
  tworowbnd        :       0.00       0.00      0          0          0          0          0          0          0          0          0          0
  dualfix          :       0.01       0.00      8          0          0          0          0          0          0          0          0          0
  genvbounds       :       0.00       0.00      0          0          0          0          0          0          0          0          0          0
  probing          :       0.04       0.00      1          0          0          0          0          0          0          0          0          0
  pseudoobj        :       0.00       0.00      0          0          0          0          0          0          0          0          0          0
  symmetry         :       4.94       0.00      1          0          0          0          0          0          0       2103          0          0
  vbounds          :       0.02       0.00      1          0       1638          0          0          0          0          0          0          0
  knapsack         :       0.00       0.00      0          0          0          0          0          0          0          0          0          0
  setppc           :       0.01       0.00      8          0        117          0          0          0          2          0        117        117
  linear           :       0.35       0.04      6        117          0          0        117          0       6669          0          0        234
  orbisack         :       0.00       0.00      1          0          0          0          0          0          0          0          0          0
  symretope        :       0.00       0.00      1          0          0          0          0          0          0          0          0          0
  logicor          :       0.58       0.03      8          0          0          0          0          0          0          0          0        819
  benders          :       0.00       0.00      0          0          0          0          0          0          0          0          0          0
  components       :       0.15       0.00      1          0          0          0          0          0          0          0          0          0
  root node        :          -          -      -          5          -          -          5          -          -          -          -          -
Constraints        :     Number  MaxNumber  #Separate #Propagate    #EnfoLP    #EnfoRelax  #EnfoPS    #Check   #ResProp    Cutoffs    DomReds       Cuts    Applied      Conss   Children
  benderslp        :          0          0          0          0         16          0          0          9          0          0          0          0          0          0          0
  integral         :          0          0          0          0         16          0          0          9          0          0        704          0          0          0         20
  knapsack         :          0+         1          0       4657          0          0          0          0          0          0          0          0          0          0          0
  setppc           :        115+       120         24      15877          0          0          0          4       2999         11        579          0          0          0          0
  linear           :          0+         3          0       2326          0          0          0          0          0          3          0          0          0          0          0
  orbisack         :       1988       1988          0        324          0          0          0          2       3831          8          2          0          0          0          0
  symretope        :        115        115          0        628          0          0          0          2        201          2          0          0          0          0          0
  logicor          :      48321+     48417         24      14790          0          0          0          2       4908         19          0          1          1          0          0
  benders          :          0          0          0          0          0          0          0          3          0          0          0          0          0          0          0
  countsols        :          0          0          0          0          0          0          0          3          0          0          0          0          0          0          0
  components       :          0          0          0          0          0          0          0          0          0          0          0          0          0          0          0
Constraint Timings :  TotalTime  SetupTime   Separate  Propagate     EnfoLP     EnfoPS     EnfoRelax   Check    ResProp    SB-Prop
  benderslp        :       0.00       0.00       0.00       0.00       0.00       0.00       0.00       0.00       0.00       0.00
  integral         :    1180.60       0.00       0.00       0.00    1180.60       0.00       0.00       0.01       0.00       0.00
  knapsack         :       0.01       0.00       0.00       0.00       0.00       0.00       0.00       0.00       0.00       0.00
  setppc           :       0.10       0.00       0.00       0.06       0.00       0.00       0.00       0.00       0.00       0.04
  linear           :       0.05       0.04       0.00       0.00       0.00       0.00       0.00       0.00       0.00       0.00
  orbisack         :       0.49       0.00       0.00       0.46       0.00       0.00       0.00       0.00       0.00       0.03
  symretope        :       0.06       0.00       0.00       0.05       0.00       0.00       0.00       0.00       0.00       0.00
  logicor          :       0.97       0.03       0.25       0.60       0.00       0.00       0.00       0.01       0.00       0.09
  benders          :       0.00       0.00       0.00       0.00       0.00       0.00       0.00       0.00       0.00       0.00
  countsols        :       0.00       0.00       0.00       0.00       0.00       0.00       0.00       0.00       0.00       0.00
  components       :       0.00       0.00       0.00       0.00       0.00       0.00       0.00       0.00       0.00       0.00
Propagators        : #Propagate   #ResProp    Cutoffs    DomReds
  dualfix          :          2          0          0          0
  genvbounds       :          0          0          0          0
  nlobbt           :          0          0          0          0
  obbt             :          0          0          0          0
  probing          :          0          0          0          0
  pseudoobj        :         71          0          0          0
  redcost          :         25          0          0          0
  rootredcost      :          1          0          0          0
  symmetry         :          0          0          0          0
  vbounds          :        516          0          0          0
Propagator Timings :  TotalTime  SetupTime   Presolve  Propagate    ResProp    SB-Prop
  dualfix          :       0.01       0.00       0.01       0.00       0.00       0.00
  genvbounds       :       0.00       0.00       0.00       0.00       0.00       0.00
  nlobbt           :       0.00       0.00       0.00       0.00       0.00       0.00
  obbt             :       0.00       0.00       0.00       0.00       0.00       0.00
  probing          :       0.04       0.00       0.04       0.00       0.00       0.00
  pseudoobj        :       0.03       0.00       0.00       0.03       0.00       0.00
  redcost          :       0.03       0.00       0.00       0.03       0.00       0.00
  rootredcost      :       0.00       0.00       0.00       0.00       0.00       0.00
  symmetry         :       4.94       0.00       4.94       0.00       0.00       0.00
  vbounds          :       0.03       0.00       0.02       0.01       0.00       0.00
Orbital fixing     :
  vars fixed to 0  :          0
  vars fixed to 1  :          0
Conflict Analysis  :       Time      Calls    Success    DomReds  Conflicts   Literals    Reconvs ReconvLits   Dualrays   Nonzeros   LP Iters   (pool size: [10000,10000])
  propagation      :       0.01         39         39          -        238      125.0         12       45.2          -          -          -
  infeasible LP    :       0.03          4          4          -         60      233.2          0        0.0          4     1004.5          0
  bound exceed. LP :       0.25          4          3          -        220      983.1          0        0.0          1      224.0         31
  strong branching :       0.00          0          0          -          0        0.0          0        0.0          -          -          0
  pseudo solution  :       0.00          0          0          -          0        0.0          0        0.0          -          -          -
  applied globally :       0.01          -          -          0        159      177.6          -          -          5          -          -
  applied locally  :          -          -          -          0          0        0.0          -          -          0          -          -
Separators         :   ExecTime  SetupTime      Calls  RootCalls    Cutoffs    DomReds  FoundCuts ViaPoolAdd  DirectAdd    Applied ViaPoolApp  DirectApp      Conss
  cut pool         :       0.03          -         46         46          -          -       1584       1563          -          -          -          -          -    (maximal pool size:       1584)
  aggregation      :       0.50       0.00         24         24          0          0         40         23          0         17         17          0          0
  > cmir           :          -          -          -          -          -          -          -         11          0          7          7          0          -
  > flowcover      :          -          -          -          -          -          -          -          0          0          0          0          0          -
  > knapsackcover  :          -          -          -          -          -          -          -         12          0         10         10          0          -
  cgmip            :       0.00       0.00          0          0          0          0          0          0          0          0          0          0          0
  clique           :       4.89       0.00         24         24          0          0          0          0          0          0          0          0          0
  closecuts        :       0.00       0.00          0          0          0          0          0          0          0          0          0          0          0
  convexproj       :       0.00       0.00          0          0          0          0          0          0          0          0          0          0          0
  disjunctive      :       0.00       0.00          0          0          0          0          0          0          0          0          0          0          0
  eccuts           :       0.00       0.00          0          0          0          0          0          0          0          0          0          0          0
  gauge            :       0.00       0.00          0          0          0          0          0          0          0          0          0          0          0
  gomory           :      62.94       0.00         10         10          0          0       1399       1392          0         86         86          0          0
  > gomorymi       :          -          -          -          -          -          -          -        899          0         62         62          0          -
  > strongcg       :          -          -          -          -          -          -          -        493          0         24         24          0          -
  impliedbounds    :       0.02       0.00         24         24          0          0          0          0          0          0          0          0          0
  interminor       :       0.00       0.00          0          0          0          0          0          0          0          0          0          0          0
  intobj           :       0.00       0.00          0          0          0          0          0          0          0          0          0          0          0
  mcf              :       0.04       0.00          1          1          0          0          0          0          0          0          0          0          0
  minor            :       0.00       0.00          0          0          0          0          0          0          0          0          0          0          0
  mixing           :       0.00       0.00          0          0          0          0          0          0          0          0          0          0          0
  oddcycle         :       0.00       0.00          0          0          0          0          0          0          0          0          0          0          0
  rapidlearning    :       0.06       0.00          0          0          0          0          0          0          0          0          0          0          0
  rlt              :       0.00       0.00         10         10          0          0          0          0          0          0          0          0          0
  zerohalf         :      34.51       0.00         20         20          0          0        145        148          0        141        141          0          0
Cutselectors       :   ExecTime  SetupTime      Calls  RootCalls   Selected     Forced   Filtered  RootSelec   RootForc   RootFilt 
  hybrid           :       0.01       0.00         23         23        245          0       1319        245          0       1319
Pricers            :   ExecTime  SetupTime      Calls       Vars
  problem variables:       0.00          -          0          0
Branching Rules    :   ExecTime  SetupTime   BranchLP  BranchExt   BranchPS    Cutoffs    DomReds       Cuts      Conss   Children
  allfullstrong    :       0.00       0.00          0          0          0          0          0          0          0          0
  cloud            :       0.00       0.00          0          0          0          0          0          0          0          0
  distribution     :       0.00       0.00          0          0          0          0          0          0          0          0
  fullstrong       :       0.00       0.00          0          0          0          0          0          0          0          0
  inference        :       0.00       0.00          0          0          0          0          0          0          0          0
  leastinf         :       0.00       0.00          0          0          0          0          0          0          0          0
  lookahead        :       0.00       0.00          0          0          0          0          0          0          0          0
  mostinf          :       0.00       0.00          0          0          0          0          0          0          0          0
  multaggr         :       0.00       0.00          0          0          0          0          0          0          0          0
  nodereopt        :       0.00       0.00          0          0          0          0          0          0          0          0
  pscost           :       0.00       0.00          0          0          0          0          0          0          0          0
  random           :       0.00       0.00          0          0          0          0          0          0          0          0
  relpscost        :    1180.60       0.00         16          0          0          0        704          0          1         20
  vanillafullstrong:       0.00       0.00          0          0          0          0          0          0          0          0
Primal Heuristics  :   ExecTime  SetupTime      Calls      Found       Best
  LP solutions     :       0.00          -          -          0          0
  relax solutions  :       0.00          -          -          0          0
  pseudo solutions :       0.00          -          -          0          0
  strong branching :       0.00          -          -          0          0
  actconsdiving    :       0.00       0.00          0          0          0
  adaptivediving   :     112.61       0.00          2          0          0
  alns             :       0.42       0.00          1          0          0
  bound            :       0.00       0.00          0          0          0
  clique           :       0.24       0.00          1          1          1
  coefdiving       :       0.00       0.00          0          0          0
  completesol      :       0.00       0.00          0          0          0
  conflictdiving   :       6.69       0.00          1          0          0
  crossover        :       0.00       0.00          0          0          0
  dins             :       0.00       0.00          0          0          0
  distributiondivin:       0.07       0.00          1          0          0
  dps              :       0.00       0.00          0          0          0
  dualval          :       0.00       0.00          0          0          0
  farkasdiving     :       0.00       0.00          0          0          0
  feaspump         :     120.43       0.00          1          0          0
  fixandinfer      :       0.00       0.00          0          0          0
  fracdiving       :     324.13       0.00          2          0          0
  gins             :       0.00       0.00          0          0          0
  guideddiving     :       0.00       0.00          0          0          0
  indicator        :       0.00       0.00          0          0          0
  intdiving        :       0.00       0.00          0          0          0
  intshifting      :       0.00       0.00          0          0          0
  linesearchdiving :       0.00       0.00          0          0          0
  localbranching   :       0.00       0.00          0          0          0
  locks            :       0.10       0.00          1          0          0
  lpface           :       0.00       0.00          0          0          0
  mpec             :       0.00       0.00          0          0          0
  multistart       :       0.00       0.00          0          0          0
  mutation         :       0.00       0.00          0          0          0
  nlpdiving        :       0.00       0.00          0          0          0
  objpscostdiving  :       0.00       0.00          0          0          0
  octane           :       0.00       0.00          0          0          0
  ofins            :       0.00       0.00          0          0          0
  oneopt           :       0.02       0.00          1          0          0
  padm             :       0.00       0.00          0          0          0
  proximity        :       0.00       0.00          0          0          0
  pscostdiving     :      68.03       0.00          2          0          0
  randrounding     :       0.61       0.00         24          0          0
  rens             :       0.93       0.00          1          0          0
  reoptsols        :       0.00       0.00          0          0          0
  repair           :       0.00       0.00          0          0          0
  rins             :       0.00       0.00          0          0          0
  rootsoldiving    :       0.00       0.00          0          0          0
  rounding         :       0.17       0.00         39          0          0
  shiftandpropagate:       0.00       0.00          0          0          0
  shifting         :       0.72       0.00         24          0          0
  simplerounding   :       0.00       0.00         39          0          0
  subnlp           :       0.00       0.00          0          0          0
  trivial          :       0.07       0.00          2          1          1
  trivialnegation  :       0.00       0.00          0          0          0
  trustregion      :       0.00       0.00          0          0          0
  trysol           :       0.00       0.00          0          0          0
  twoopt           :       0.00       0.00          0          0          0
  undercover       :       0.00       0.00          0          0          0
  vbounds          :       0.67       0.00          1          0          0
  veclendiving     :       0.00       0.00          0          0          0
  zeroobj          :       0.00       0.00          0          0          0
  zirounding       :       0.10       0.00         10          0          0
  other solutions  :          -          -          -          0          -
LP                 :       Time      Calls Iterations  Iter/call   Iter/sec  Time-0-It Calls-0-It    ItLimit
  primal LP        :      70.42          4          0       0.00       0.00      70.42          4
  dual LP          :    5202.60         41    1269100   30953.66     243.94       0.00          0
  lex dual LP      :       0.00          0          0       0.00          -
  barrier LP       :       0.00          0          0       0.00          -       0.00          0
  resolve instable :       0.00          0          0       0.00          -
  diving/probing LP:     631.09         12     199767   16647.25     316.55
  strong branching :    1179.14        298     292458     981.40     248.03          -          -        583
    (at root node) :          -         35      35000    1000.00          -
  conflict analysis:       0.09          4         31       7.75     330.55
B&B Tree           :
  number of runs   :          1
  nodes            :         13 (10 internal, 3 leaves)
  feasible leaves  :          0
  infeas. leaves   :          2
  objective leaves :          0
  nodes (total)    :         13 (10 internal, 3 leaves)
  nodes left       :          7
  max depth        :          5
  max depth (total):          5
  backtracks       :          7 (53.8%)
  early backtracks :          0 (0.0%)
  nodes exc. ref.  :          0 (0.0%)
  delayed cutoffs  :          2
  repropagations   :          6 (2 domain reductions, 0 cutoffs)
  avg switch length:       3.69
  switching time   :      17.47
Root Node          :
  First LP value   : -1.08000000000000e+02
  First LP Iters   :      57770 (437.12 Iter/sec)
  First LP Time    :     132.16
  Final Dual Bound : -1.04024067144644e+02
  Final Root Iters :     766463
  Root LP Estimate : +8.70307229313572e+01
Solution           :
  Solutions found  :          2 (2 improvements)
  First Solution   : +0.00000000000000e+00   (in run 1, after 1 nodes, 6.72 seconds, depth 0, found by <trivial>)
  Gap First Sol.   :   infinite
  Gap Last Sol.    :   11600.00 %
  Primal Bound     : -1.00000000000000e+00   (in run 1, after 1 nodes, 6.93 seconds, depth 21, found by <clique>)
  Dual Bound       : -1.03983038778315e+02
  Gap              :   10298.30 %
Integrals          :      Total       Avg%
  primal-dual      :  713164.45      99.05
  primal-ref       :          -          - (not evaluated)
  dual-ref         :          -          - (not evaluated)
written solution information to file <results/final_miplib_symretope_if_extended_generating_set_cpx_v802__settings_final_nopeek_norelabel_extend_norestarts__2__graph20-80-1rand.mps.gz.sol>
@04 1686663921
